6372.0
[0, 1, 1, 1, 0, 0, 1, 0, 0, 1, 1, 1, 0, 1, 0, 0, 0, 0, 0, 0, 0, 0, 0, 0, 0, 0, 1, 0, 0, 0]
[10, 10, 10, 10, 10, 10, 10, 1, 1, 11, 1, 11, 11, 11, 11, 2, 3, 3, 2, 3, 2, 6, 6, 6, 6, 6, 6, 9, 9, 9, 9, 13, 9, 9, 10, 2, 3, 6, 3, 1, 10, 3, 3, 11, 6, 26, 26, 26, 13, 26, 10, 13, 13, 11, 3, 26, 13, 1, 3, 26, 3, 1, 10, 26, 26, 26, 26, 13, 11, 1]